NAME : rnd48_20.tsp
TYPE : TSP
DIMENSION : 20
EDGE_WEIGHT_TYPE : EUC_2D
NODE_COORD_SECTION
1 818 911
2 122 792
3 257 914
4 966 292
5 973 304
6 260 82
7 886 444
8 877 810
9 602 830
10 985 190
11 90 215
12 144 967
13 399 256
14 813 981
15 676 26
16 202 550
17 743 27
18 362 868
19 835 167
20 623 438
